Route #1: 26 25 9 32 20 41 13 49 38
Route #2: 51 8 34 2 37 39 12 54 4 10 27 45 23 3
Route #3: 5 36 21 16 50 19 29 40 6 30 11 24
Route #4: 53 47 15 28 14 17
Route #5: 33 42 52 43 48
Route #6: 31 35
Route #7: 1 44 7 18 22 46
cost 1582.4101742198313
